*HEADING
BridgeMind BSDL Industrial 1.0.0 -> CalculiX 2.23
** Generated at 2026-08-13T06:21:22.731507Z
** Document document.calculix_industrial_bridge_segment revision 1
** FE model fem.bridge_segment mesh hash d10e71223e1a3c0a5e21c22b856c2a4640a85462886d3b4f510a081b28f60dad
*NODE, NSET=NALL
1, 0, 0, 2
2, 2, 0, 2
3, 4, 0, 2
4, 6, 0, 2
5, 8, 0, 2
6, 10, 0, 2
7, 12, 0, 2
8, 0, 2, 2
9, 2, 2, 2
10, 4, 2, 2
11, 6, 2, 2
12, 8, 2, 2
13, 10, 2, 2
14, 12, 2, 2
15, 0, 4, 2
16, 2, 4, 2
17, 4, 4, 2
18, 6, 4, 2
19, 8, 4, 2
20, 10, 4, 2
21, 12, 4, 2
22, 5, 1.5, 1.5
23, 6, 1.5, 1.5
24, 7, 1.5, 1.5
25, 5, 2.5, 1.5
26, 6, 2.5, 1.5
27, 7, 2.5, 1.5
28, 5, 1.5, 2
29, 6, 1.5, 2
30, 7, 1.5, 2
31, 5, 2.5, 2
32, 6, 2.5, 2
33, 7, 2.5, 2
*ELEMENT, TYPE=S4R, ELSET=ETYPE_S4R
1, 1, 2, 9, 8
2, 2, 3, 10, 9
3, 3, 4, 11, 10
4, 4, 5, 12, 11
5, 5, 6, 13, 12
6, 6, 7, 14, 13
7, 8, 9, 16, 15
8, 9, 10, 17, 16
9, 10, 11, 18, 17
10, 11, 12, 19, 18
11, 12, 13, 20, 19
12, 13, 14, 21, 20
*ELEMENT, TYPE=C3D8R, ELSET=ETYPE_C3D8R
13, 22, 23, 26, 25, 28, 29, 32, 31
14, 23, 24, 27, 26, 29, 30, 33, 32
*ELEMENT, TYPE=T3D2, ELSET=ETYPE_T3D2
15, 8, 11
16, 11, 14
*ELSET, ELSET=EALL
1, 2, 3, 4, 5, 6, 7, 8, 9, 10, 11, 12, 13, 14, 15, 16
*MATERIAL, NAME=MAT_MAT_STEEL
*ELASTIC
206000000000, 0.3
*DENSITY
7850
*PLASTIC
345000000, 0
380000000, 0.02
*MATERIAL, NAME=MAT_MAT_CONCRETE
*ELASTIC
34500000000, 0.2
*DENSITY
2500
*MATERIAL, NAME=MAT_MAT_PRESTRESS
*ELASTIC
195000000000, 0.3
*DENSITY
7850
*ELSET, ELSET=SEC_1_S4R_SHELL_DECK_025
1, 2, 3, 4, 5, 6, 7, 8, 9, 10, 11, 12
*SHELL SECTION, ELSET=SEC_1_S4R_SHELL_DECK_025, MATERIAL=MAT_MAT_CONCRETE, OFFSET=0
0.25
*ELSET, ELSET=SEC_2_C3D8R_SOLID_BEARING_STEEL
13, 14
*SOLID SECTION, ELSET=SEC_2_C3D8R_SOLID_BEARING_STEEL, MATERIAL=MAT_MAT_STEEL
*ELSET, ELSET=SEC_3_T3D2_SEC_TENDON
15, 16
*SOLID SECTION, ELSET=SEC_3_T3D2_SEC_TENDON, MATERIAL=MAT_MAT_PRESTRESS
0.0014
*ELSET, ELSET=FEM_DECK_SET_ALL
1, 2, 3, 4, 5, 6, 7, 8, 9, 10, 11, 12
*NSET, NSET=FEM_DECK_SET_EDGE_U0
1, 8, 15
*NSET, NSET=FEM_DECK_SET_EDGE_U1
7, 14, 21
*NSET, NSET=FEM_DECK_SET_EDGE_V0
1, 2, 3, 4, 5, 6, 7
*NSET, NSET=FEM_DECK_SET_EDGE_V1
15, 16, 17, 18, 19, 20, 21
*SURFACE, NAME=FEM_DECK_SURFACE_POSITIVE, TYPE=ELEMENT
1, SPOS
2, SPOS
3, SPOS
4, SPOS
5, SPOS
6, SPOS
7, SPOS
8, SPOS
9, SPOS
10, SPOS
11, SPOS
12, SPOS
*SURFACE, NAME=FEM_DECK_SURFACE_NEGATIVE, TYPE=ELEMENT
1, SNEG
2, SNEG
3, SNEG
4, SNEG
5, SNEG
6, SNEG
7, SNEG
8, SNEG
9, SNEG
10, SNEG
11, SNEG
12, SNEG
*ELSET, ELSET=FEM_BEARING_SET_ALL
13, 14
*SURFACE, NAME=FEM_BEARING_SURFACE_XMIN, TYPE=ELEMENT
13, S6
*SURFACE, NAME=FEM_BEARING_SURFACE_XMAX, TYPE=ELEMENT
14, S4
*SURFACE, NAME=FEM_BEARING_SURFACE_YMIN, TYPE=ELEMENT
13, S1
14, S1
*SURFACE, NAME=FEM_BEARING_SURFACE_YMAX, TYPE=ELEMENT
13, S2
14, S2
*SURFACE, NAME=FEM_BEARING_SURFACE_ZMIN, TYPE=ELEMENT
13, S3
14, S3
*SURFACE, NAME=FEM_BEARING_SURFACE_ZMAX, TYPE=ELEMENT
13, S5
14, S5
*ELSET, ELSET=FEM_TENDON_SET_ALL
15, 16
*ELSET, ELSET=FEM_BRIDGE_SEGMENT_SET_ALL
1, 2, 3, 4, 5, 6, 7, 8, 9, 10, 11, 12, 13, 14, 15, 16
*BOUNDARY
1, 1, 1, 0.
1, 2, 2, 0.
1, 3, 3, 0.
7, 3, 3, 0.
8, 3, 3, 0.
14, 3, 3, 0.
15, 2, 2, 0.
15, 3, 3, 0.
21, 3, 3, 0.
22, 1, 1, 0.
22, 2, 2, 0.
22, 3, 3, 0.
23, 1, 1, 0.
23, 2, 2, 0.
23, 3, 3, 0.
24, 1, 1, 0.
24, 2, 2, 0.
24, 3, 3, 0.
25, 1, 1, 0.
25, 2, 2, 0.
25, 3, 3, 0.
26, 1, 1, 0.
26, 2, 2, 0.
26, 3, 3, 0.
27, 1, 1, 0.
27, 2, 2, 0.
27, 3, 3, 0.
*SURFACE INTERACTION, NAME=INTERACTION_1_CONTACT_DECK_BEARING
*SURFACE BEHAVIOR, PRESSURE-OVERCLOSURE=LINEAR
1e+12
*FRICTION
0.3
*CONTACT PAIR, INTERACTION=INTERACTION_1_CONTACT_DECK_BEARING, TYPE=SURFACE TO SURFACE
FEM_DECK_SURFACE_NEGATIVE, FEM_BEARING_SURFACE_ZMAX
*ELSET, ELSET=STAGE_STAGE_SUPPORT_REMOVE
1, 7, 2, 8, 3, 9, 4, 10, 5, 11, 6, 12, 15, 16
*ELSET, ELSET=STAGE_STAGE_DECK_ADD
1, 7, 2, 8, 3, 9, 4, 10, 5, 11, 6, 12
*ELSET, ELSET=STAGE_STAGE_PRESTRESS_ADD
15, 16
*STEP, NAME=CCX_INITIALIZE_EXPANDED_ELEMENTS, NLGEOM=NO
*STATIC
*NODE FILE
U, RF
*EL FILE
S, E
*NODE PRINT, NSET=NALL
U, RF
*EL PRINT, ELSET=EALL
S, E
*END STEP
*STEP, NAME=STAGE_SUPPORT, NLGEOM=YES
*STATIC
0.1, 1, 1e-08, 0.2
*MODEL CHANGE, TYPE=ELEMENT, REMOVE
STAGE_STAGE_SUPPORT_REMOVE
*MODEL CHANGE, TYPE=CONTACT PAIR, REMOVE
FEM_DECK_SURFACE_NEGATIVE, FEM_BEARING_SURFACE_ZMAX
*DLOAD, OP=NEW
FEM_BRIDGE_SEGMENT_SET_ALL, GRAV, 9.81, 0, 0, -1
*NODE FILE
U, RF
*EL FILE
S, E
*NODE PRINT, NSET=NALL
U, RF
*EL PRINT, ELSET=EALL
S, E
*CONTACT FILE
CDIS, CSTR
*END STEP
*STEP, NAME=STAGE_DECK, NLGEOM=YES
*STATIC
0.05, 1, 1e-08, 0.1
*MODEL CHANGE, TYPE=ELEMENT, ADD=STRAIN FREE
STAGE_STAGE_DECK_ADD
*MODEL CHANGE, TYPE=CONTACT PAIR, ADD
FEM_DECK_SURFACE_NEGATIVE, FEM_BEARING_SURFACE_ZMAX
*DLOAD, OP=NEW
FEM_BRIDGE_SEGMENT_SET_ALL, GRAV, 9.81, 0, 0, -1
*NODE FILE
U, RF
*EL FILE
S, E
*NODE PRINT, NSET=NALL
U, RF
*EL PRINT, ELSET=EALL
S, E
*CONTACT FILE
CDIS, CSTR
*END STEP
*STEP, NAME=STAGE_PRESTRESS, NLGEOM=YES
*STATIC
0.02, 1, 1e-08, 0.08
*MODEL CHANGE, TYPE=ELEMENT, ADD=STRAIN FREE
STAGE_STAGE_PRESTRESS_ADD
*CLOAD, OP=NEW
8, 1, 1404206.3693
8, 3, -58508.5987208
11, 3, 115673.008894
14, 1, -1374596.44729
14, 3, -57274.8519706
*DLOAD, OP=NEW
FEM_BRIDGE_SEGMENT_SET_ALL, GRAV, 9.81, 0, 0, -1
*NODE FILE
U, RF
*EL FILE
S, E
*NODE PRINT, NSET=NALL
U, RF
*EL PRINT, ELSET=EALL
S, E
*CONTACT FILE
CDIS, CSTR
*END STEP
*STEP, NAME=STAGE_SERVICE, NLGEOM=YES
*STATIC
0.02, 1, 1e-08, 0.08
*CLOAD, OP=NEW
11, 3, -100000
8, 1, 1404206.3693
8, 3, -58508.5987208
11, 3, 115673.008894
14, 1, -1374596.44729
14, 3, -57274.8519706
*DLOAD, OP=NEW
FEM_BRIDGE_SEGMENT_SET_ALL, GRAV, 9.81, 0, 0, -1
*DSLOAD, OP=NEW
FEM_DECK_SURFACE_POSITIVE, P, -25000
*NODE FILE
U, RF
*EL FILE
S, E
*NODE PRINT, NSET=NALL
U, RF
*EL PRINT, ELSET=EALL
S, E
*CONTACT FILE
CDIS, CSTR
*END STEP
